
630.0
660.0
840.0
690.0
810.0
810.0
630.0
630.0
630.0
630.0
630.0
630.0
630.0
750.0
630.0
780.0
810.0
630.0
630.0
630.0
630.0
630.0
630.0
630.0
630.0
630.0
1050.0
630.0
630.0
630.0
690.0
630.0
630.0
630.0
630.0
630.0
630.0
630.0
780.0
660.0
630.0
750.0
630.0
630.0
630.0
630.0
720.0
810.0
720.0
630.0
630.0
840.0
630.0
630.0
630.0
750.0
630.0
630.0
810.0
630.0
630.0
630.0
630.0
780.0
840.0
630.0
630.0
750.0
630.0
630.0
630.0
630.0
780.0
630.0
750.0
780.0
630.0
630.0
630.0
630.0